(declare-const in0 Int)
(declare-const in2 Int)
(declare-const in1 Int)
(declare-const in4 Int)
(declare-const in3 Int)
(declare-const in6 Int)
(declare-const in5 Int)
(declare-const in8 Int)
(declare-const in7 Int)
(declare-const in11 Int)
(declare-const in9 Int)
(declare-const in10 Int)
(declare-const in13 Int)
(declare-const in12 Int)

(assert (and (and (and (and (and (and  ( <  in0 in13)  ( <  in1 in12))  ( <  in2 in11))  ( <  in3 in10))  ( <  in4 in9))  ( <  in5 in8))  ( <  in6 in7)))

(check-sat)
(get-model)